
  22   10
  10   10   10   10   10   10   10   10   10   10

   0   0   0   0   0   0   0   0   0   0   0   4 2 3 4 5 
   8   0   0   0   0   0   0  10   0   0   0   2 7 6 
   1   0  10   0   0   0   0   0   0   0   0   2 7 6 
   7   0   0   0   0  10   0   0   0   0   0   1 7 
   9   0  10   0   0   0   0   0   0   0   0   1 6 
   8   0   0  10   0   0   0   0   0   0   0   2 9 8 
   8   0   0   0   0   0   0   0  10   0   0   2 9 8 
   9   0   0   0   0   0   0   0   0   0  10   2 14 11 
   1   0   0   0   0   0   0   0   0  10   0   1 10 
   5   0   0   0   0   0   0   0  10   0   0   2 14 12 
  10  10   0   0   0   0   0   0   0   0   0   1 12 
   4   0  10   0   0   0   0   0   0   0   0   1 13 
   7   0   0   0   0  10   0   0   0   0   0   2 17 15 
   7   0   0   0   0   0   0  10   0   0   0   2 17 15 
   6   0   0   0   0   0   0  10   0   0   0   2 18 16 
   6  10   0   0   0   0   0   0   0   0   0   2 21 19 
   5   0   0   0   0   0  10   0   0   0   0   2 21 19 
   1   0   0   0   0   0   0   0   0  10   0   2 21 20 
   4   0   0   0   0   0   0   0   0   0  10   1 20 
   9   0   0   0   0   0  10   0   0   0   0   1 22
   7   0   0   0   0   0  10   0   0   0   0   1 22
   0   0   0   0   0   0   0   0   0   0   0   0 
